# Solution for model GasLib-40
# Objective value = 5.2568234266403266e+01
loadshed[innode_1] 0
loadshed[innode_2] 0
loadshed[innode_3] 0
loadshed[innode_4] 0
loadshed[innode_5] 0
loadshed[innode_6] 0
loadshed[innode_7] 0
loadshed[innode_8] 0
loadshed[source_1] -9.8318255976953983e-02
loadshed[source_2] 6.1495157772448961e-02
loadshed[source_3] 3.6934344673781727e-01
loadshed[sink_1] 3.5250693609002248e-01
loadshed[sink_2] 0
loadshed[sink_3] 0
loadshed[sink_4] 0
loadshed[sink_5] 0
loadshed[sink_6] 0
loadshed[sink_7] 0
loadshed[sink_8] 0
loadshed[sink_9] 0
loadshed[sink_10] 0
loadshed[sink_11] 0
loadshed[sink_12] 1
loadshed[sink_13] 0
loadshed[sink_14] 0
loadshed[sink_15] 0
loadshed[sink_16] 0
loadshed[sink_17] 0
loadshed[sink_18] 0
loadshed[sink_19] 0
loadshed[sink_20] 0
loadshed[sink_21] 1
loadshed[sink_22] 0
loadshed[sink_23] 0
loadshed[sink_24] 8.6185643306584558e-01
loadshed[sink_25] 0
loadshed[sink_26] 0
loadshed[sink_27] 0
loadshed[sink_28] 0
loadshed[sink_29] 0
flow[source_1,sink_3] 1.7363343817580107e+02
flow[innode_1,sink_16] 1.6354166666666970e+01
flow[innode_6,sink_13] 1.4778496979071946e+01
flow[sink_13,sink_14] -1.5756696875947220e+00
flow[sink_14,sink_10] -1.7929836354261624e+01
flow[sink_25,sink_26] 1.1260990800931596e+02
flow[sink_26,sink_9] 0
flow[sink_9,sink_18] -1.6354166666669244e+01
flow[sink_26,sink_4] 9.6255741342649287e+01
flow[sink_4,sink_20] -1.4522905902888692e+01
flow[sink_18,sink_6] -3.2708333333335915e+01
flow[sink_25,innode_8] -1.4092510484246472e+02
flow[sink_6,sink_7] -7.6005876149363672e+01
flow[sink_6,sink_22] 2.6943376149361093e+01
flow[sink_7,sink_24] 2.2592229175689824e+00
flow[sink_22,sink_1] 1.0589209482694425e+01
flow[sink_24,sink_21] 0
flow[sink_21,sink_12] 0
flow[sink_7,sink_5] -94.6192657335993
flow[sink_5,sink_17] -1.1097343240026598e+02
flow[sink_17,sink_4] -9.4424480578871311e+01
flow[sink_17,sink_8] -3.2903118488061338e+01
flow[sink_3,sink_23] 16.3541666666697
flow[sink_8,sink_20] -4.9257285154728010e+01
flow[sink_25,sink_20] 8.0134357724283348e+01
flow[sink_25,sink_15] -8.2951824536875179e+01
flow[sink_15,sink_29] -5.6207580816027694e+01
flow[sink_29,sink_28] 1.6354166666667879e+01
flow[sink_29,sink_2] 5.9452577054180821e+01
flow[sink_2,sink_15] 4.3098410387514157e+01
flow[sink_29,innode_7] -1.4836849120354304e+02
flow[innode_4,sink_19] 3.7838969817730593e+01
flow[sink_19,innode_3] 6.6992336354261710e+01
flow[innode_4,innode_5] 6.1861699869863784e+01
flow[sink_27,innode_5] -6.1861699869863784e+01
flow[sink_27,sink_19] 4.5507533203197113e+01
flow[sink_10,sink_11] 3.2708333333333641e+01
flow[sink_10,innode_2] 0
flow[sink_10,innode_3] -6.6992336354261710e+01
flow[innode_6,sink_25] -1.4778496979071946e+01
flow[sink_11,innode_1] 1.6354166666666970e+01
flow[sink_19,innode_2] 0
flow[source_3,innode_4] 9.9700669687594370e+01
flow[source_2,innode_7] 1.4836849120354304e+02
flow[sink_3,innode_8] 1.4092510484246472e+02
pressure[innode_1] 75.6135724167041
pressure[innode_2] 7.5765273724307647e+01
pressure[innode_3] 7.9331949975641749e+01
pressure[innode_4] 81.01325
pressure[innode_5] 8.0970698260851975e+01
pressure[innode_6] 7.4995869229865079e+01
pressure[innode_7] 81.01325
pressure[innode_8] 8.0432859746555891e+01
pressure[source_1] 81.01325
pressure[source_2] 81.01325
pressure[source_3] 81.01325
pressure[sink_1] 1.0132500000000002e+00
pressure[sink_2] 7.5538973220116532e+01
pressure[sink_3] 8.0432859746555891e+01
pressure[sink_4] 54.8266154656163
pressure[sink_5] 4.2951304598180911e+01
pressure[sink_6] 2.5565123943855159e+00
pressure[sink_7] 3.5998919033279448e+00
pressure[sink_8] 5.2459543313746529e+01
pressure[sink_9] 1.0913600150792782e+00
pressure[sink_10] 7.5765273724307647e+01
pressure[sink_11] 75.6135724167041
pressure[sink_12] 1.01325
pressure[sink_13] 7.4914397845735735e+01
pressure[sink_14] 7.4917217640859064e+01
pressure[sink_15] 7.5398266408937957e+01
pressure[sink_16] 7.4591922581886422e+01
pressure[sink_17] 5.1218023172992133e+01
pressure[sink_18] 1.6831025088790326e+00
pressure[sink_19] 7.9480296918439123e+01
pressure[sink_20] 5.5892083370479163e+01
pressure[sink_21] 1.01325
pressure[sink_22] 1.7020331412763221e+00
pressure[sink_23] 80.2681417348961
pressure[sink_24] 1.01325
pressure[sink_25] 7.4995869229865079e+01
pressure[sink_26] 6.7064819540900515e+01
pressure[sink_27] 8.0457360460062588e+01
pressure[sink_28] 7.6749691819584555e+01
pressure[sink_29] 7.7044974093201731e+01
interdiction[source_1,sink_3] 0
interdiction[innode_1,sink_16] 0
interdiction[innode_6,sink_13] 0
interdiction[sink_13,sink_14] 0
interdiction[sink_14,sink_10] 0
interdiction[sink_25,sink_26] 0
interdiction[sink_26,sink_9] 1
interdiction[sink_9,sink_18] 0
interdiction[sink_26,sink_4] 0
interdiction[sink_4,sink_20] 0
interdiction[sink_18,sink_6] 0
interdiction[sink_25,innode_8] 0
interdiction[sink_6,sink_7] 0
interdiction[sink_6,sink_22] 0
interdiction[sink_7,sink_24] 0
interdiction[sink_22,sink_1] 0
interdiction[sink_24,sink_21] 0
interdiction[sink_21,sink_12] 0
interdiction[sink_7,sink_5] 0
interdiction[sink_5,sink_17] 0
interdiction[sink_17,sink_4] 0
interdiction[sink_17,sink_8] 0
interdiction[sink_3,sink_23] 0
interdiction[sink_8,sink_20] 0
interdiction[sink_25,sink_20] 0
interdiction[sink_25,sink_15] 0
interdiction[sink_15,sink_29] 0
interdiction[sink_29,sink_28] 0
interdiction[sink_29,sink_2] 0
interdiction[sink_2,sink_15] 0
interdiction[sink_29,innode_7] 0
interdiction[innode_4,sink_19] 0
interdiction[sink_19,innode_3] 0
interdiction[innode_4,innode_5] 0
interdiction[sink_27,innode_5] 0
interdiction[sink_27,sink_19] 0
interdiction[sink_10,sink_11] 0
interdiction[sink_10,innode_2] 0
interdiction[sink_10,innode_3] 0
interdiction[innode_6,sink_25] 0
interdiction[sink_11,innode_1] 0
interdiction[sink_19,innode_2] 1
interdiction[source_3,innode_4] 0
interdiction[source_2,innode_7] 0
interdiction[sink_3,innode_8] 0
WCcheckFlow[source_1,sink_3] 39
WCcheckFlow[innode_1,sink_16] 1
WCcheckFlow[innode_6,sink_13] 13
WCcheckFlow[sink_13,sink_14] 12
WCcheckFlow[sink_14,sink_10] 11
WCcheckFlow[sink_25,sink_26] 15
WCcheckFlow[sink_26,sink_9] 0
WCcheckFlow[sink_9,sink_18] -1
WCcheckFlow[sink_26,sink_4] 14
WCcheckFlow[sink_4,sink_20] 1
WCcheckFlow[sink_18,sink_6] -2
WCcheckFlow[sink_25,innode_8] -36
WCcheckFlow[sink_6,sink_7] -5
WCcheckFlow[sink_6,sink_22] 2
WCcheckFlow[sink_7,sink_24] 3
WCcheckFlow[sink_22,sink_1] 1
WCcheckFlow[sink_24,sink_21] 2
WCcheckFlow[sink_21,sink_12] 1
WCcheckFlow[sink_7,sink_5] -9
WCcheckFlow[sink_5,sink_17] -10
WCcheckFlow[sink_17,sink_4] -12
WCcheckFlow[sink_17,sink_8] 1
WCcheckFlow[sink_3,sink_23] 1
WCcheckFlow[sink_8,sink_20] 0
WCcheckFlow[sink_25,sink_20] 0
WCcheckFlow[sink_25,sink_15] 6
WCcheckFlow[sink_15,sink_29] 5
WCcheckFlow[sink_29,sink_28] 1
WCcheckFlow[sink_29,sink_2] 1
WCcheckFlow[sink_2,sink_15] 0
WCcheckFlow[sink_29,innode_7] 2
WCcheckFlow[innode_4,sink_19] -4
WCcheckFlow[sink_19,innode_3] -5
WCcheckFlow[innode_4,innode_5] 2
WCcheckFlow[sink_27,innode_5] -1
WCcheckFlow[sink_27,sink_19] 0
WCcheckFlow[sink_10,sink_11] 3
WCcheckFlow[sink_10,innode_2] 1
WCcheckFlow[sink_10,innode_3] 6
WCcheckFlow[innode_6,sink_25] -14
WCcheckFlow[sink_11,innode_1] 2
WCcheckFlow[sink_19,innode_2] 0
WCcheckFlow[source_3,innode_4] -1
WCcheckFlow[source_2,innode_7] -1
WCcheckFlow[sink_3,innode_8] 37
